SAT
1 38 -37 -99 58 -45 -12 -94 7 -8 100 -41 56 -51 14 -55 -15 -10 65 -29 -90 -2 -62 30 -6 -26 -17 -9 -82 -3 21 -5 -95 -98 84 18 -32 -40 -27 -42 16 75 -97 -85 -23 80 -39 93 78 81 76 -25 13 54 -63 33 -49 52 -71 -44 50 11 66 -68 -70 28 69 -91 -24 -89 -73 -59 86 -53 92 34 -87 -35 -47 83 96 77 67 36 4 60 -88 61 74 -48 -64 20 -57 46 -19 -72 -22 -79 31 43 0
